NAME : tsp30_19.182.tour
COMMENT : Length = 182
COMMENT : Found by LKH [Keld Helsgaun]
TYPE : TOUR
DIMENSION : 30
TOUR_SECTION
1
15
5
24
6
11
21
18
4
23
25
7
17
30
26
10
20
14
19
12
3
22
9
29
13
16
8
2
28
27
-1
EOF
